100 10
624 622
545 671
409 600
463 322
518 891
237 584
481 524
421 654
549 235
819 566
369 480
764 696
105 805
741 190
219 348
671 577
622 494
764 571
571 712
338 666
584 311
39 326
609 389
653 451
676 450
384 788
441 141
387 538
882 620
284 491
87 861
625 537
158 794
585 496
668 677
589 659
403 791
588 449
521 410
728 519
608 207
693 711
774 418
329 268
91 101
504 300
678 878
677 671
464 173
287 605
615 462
568 460
600 402
135 903
139 393
644 505
312 400
50 874
608 572
738 177
421 237
573 198
538 593
693 841
631 232
616 306
80 593
113 584
712 295
547 309
312 340
351 265
794 671
474 523
759 705
427 613
471 695
640 560
759 601
437 589
509 637
419 113
625 321
575 411
113 221
894 272
348 211
480 427
661 453
428 153
847 633
720 390
402 411
432 359
267 474
394 499
685 505
527 464
425 726
662 292
